9
2147483647 21 62 35 30 94 82 35 43 
21 2147483647 1 92 51 58 75 6 62 
62 1 2147483647 30 4 13 5 65 70 
35 92 30 2147483647 36 64 19 56 84 
30 51 4 36 2147483647 45 30 76 48 
94 58 13 64 45 2147483647 36 85 22 
82 75 5 19 30 36 2147483647 4 37 
35 6 65 56 76 85 4 2147483647 89 
43 62 70 84 48 22 37 89 2147483647 
